Route #1: 23 46 39 12 9 38 22 33 47
Route #2: 21 36 45 5 20 8 11 37
Route #3: 40 2 48 17 19 44 49 15
Route #4: 35 4 1 13 26 29
Route #5: 41 31 7
Route #6: 3 10 42 16 27 24 43 14 18 25 30
Route #7: 6 28 32 34
cost 763.8648681640625